
Gurobi 7.0.2 (linux64) logging started Tue Apr 28 09:09:54 2020


ERROR 10009: HostID mismatch (licensed to 4c360320, hostid is 4875b697) - license file '/home/marcelo/gurobi.lic'


Gurobi 7.0.2 (linux64) logging started Tue Apr 28 09:10:25 2020


ERROR 10009: HostID mismatch (licensed to 4c360320, hostid is 4875b697) - license file '/home/marcelo/gurobi.lic'


Gurobi 7.0.2 (linux64) logging started Tue Apr 28 09:10:26 2020


ERROR 10009: HostID mismatch (licensed to 4c360320, hostid is 4875b697) - license file '/home/marcelo/gurobi.lic'


Gurobi 7.0.2 (linux64) logging started Tue Apr 28 09:10:27 2020


ERROR 10009: HostID mismatch (licensed to 4c360320, hostid is 4875b697) - license file '/home/marcelo/gurobi.lic'


Gurobi 7.0.2 (linux64) logging started Tue Apr 28 09:10:28 2020


ERROR 10009: HostID mismatch (licensed to 4c360320, hostid is 4875b697) - license file '/home/marcelo/gurobi.lic'


Gurobi 7.0.2 (linux64) logging started Tue Apr 28 09:10:29 2020


ERROR 10009: HostID mismatch (licensed to 4c360320, hostid is 4875b697) - license file '/home/marcelo/gurobi.lic'


Gurobi 7.0.2 (linux64) logging started Tue Apr 28 09:10:30 2020


ERROR 10009: HostID mismatch (licensed to 4c360320, hostid is 4875b697) - license file '/home/marcelo/gurobi.lic'


Gurobi 7.0.2 (linux64) logging started Tue Apr 28 09:10:38 2020


ERROR 10009: HostID mismatch (licensed to 4c360320, hostid is 4875b697) - license file '/home/marcelo/gurobi.lic'

